c preprocessed version of sodoku, 81 vertices, 810 edges
p td 81 810
0 1
0 2
0 3
0 4
0 5
0 6
0 7
0 8
0 9
0 10
0 11
0 18
0 19
0 20
0 27
0 36
0 45
0 54
0 63
0 72
1 2
1 3
1 4
1 5
1 6
1 7
1 8
1 9
1 10
1 11
1 18
1 19
1 20
1 28
1 37
1 46
1 55
1 64
1 73
2 3
2 4
2 5
2 6
2 7
2 8
2 9
2 10
2 11
2 18
2 19
2 20
2 29
2 38
2 47
2 56
2 65
2 74
3 4
3 5
3 6
3 7
3 8
3 12
3 13
3 14
3 21
3 22
3 23
3 30
3 39
3 48
3 57
3 66
3 75
4 5
4 6
4 7
4 8
4 12
4 13
4 14
4 21
4 22
4 23
4 31
4 40
4 49
4 58
4 67
4 76
5 6
5 7
5 8
5 12
5 13
5 14
5 21
5 22
5 23
5 32
5 41
5 50
5 59
5 68
5 77
6 7
6 8
6 15
6 16
6 17
6 24
6 25
6 26
6 33
6 42
6 51
6 60
6 69
6 78
7 8
7 15
7 16
7 17
7 24
7 25
7 26
7 34
7 43
7 52
7 61
7 70
7 79
8 15
8 16
8 17
8 24
8 25
8 26
8 35
8 44
8 53
8 62
8 71
8 80
9 10
9 11
9 12
9 13
9 14
9 15
9 16
9 17
9 18
9 19
9 20
9 27
9 36
9 45
9 54
9 63
9 72
10 11
10 12
10 13
10 14
10 15
10 16
10 17
10 18
10 19
10 20
10 28
10 37
10 46
10 55
10 64
10 73
11 12
11 13
11 14
11 15
11 16
11 17
11 18
11 19
11 20
11 29
11 38
11 47
11 56
11 65
11 74
12 13
12 14
12 15
12 16
12 17
12 21
12 22
12 23
12 30
12 39
12 48
12 57
12 66
12 75
13 14
13 15
13 16
13 17
13 21
13 22
13 23
13 31
13 40
13 49
13 58
13 67
13 76
14 15
14 16
14 17
14 21
14 22
14 23
14 32
14 41
14 50
14 59
14 68
14 77
15 16
15 17
15 24
15 25
15 26
15 33
15 42
15 51
15 60
15 69
15 78
16 17
16 24
16 25
16 26
16 34
16 43
16 52
16 61
16 70
16 79
17 24
17 25
17 26
17 35
17 44
17 53
17 62
17 71
17 80
18 19
18 20
18 21
18 22
18 23
18 24
18 25
18 26
18 27
18 36
18 45
18 54
18 63
18 72
19 20
19 21
19 22
19 23
19 24
19 25
19 26
19 28
19 37
19 46
19 55
19 64
19 73
20 21
20 22
20 23
20 24
20 25
20 26
20 29
20 38
20 47
20 56
20 65
20 74
21 22
21 23
21 24
21 25
21 26
21 30
21 39
21 48
21 57
21 66
21 75
22 23
22 24
22 25
22 26
22 31
22 40
22 49
22 58
22 67
22 76
23 24
23 25
23 26
23 32
23 41
23 50
23 59
23 68
23 77
24 25
24 26
24 33
24 42
24 51
24 60
24 69
24 78
25 26
25 34
25 43
25 52
25 61
25 70
25 79
26 35
26 44
26 53
26 62
26 71
26 80
27 28
27 29
27 30
27 31
27 32
27 33
27 34
27 35
27 36
27 37
27 38
27 45
27 46
27 47
27 54
27 63
27 72
28 29
28 30
28 31
28 32
28 33
28 34
28 35
28 36
28 37
28 38
28 45
28 46
28 47
28 55
28 64
28 73
29 30
29 31
29 32
29 33
29 34
29 35
29 36
29 37
29 38
29 45
29 46
29 47
29 56
29 65
29 74
30 31
30 32
30 33
30 34
30 35
30 39
30 40
30 41
30 48
30 49
30 50
30 57
30 66
30 75
31 32
31 33
31 34
31 35
31 39
31 40
31 41
31 48
31 49
31 50
31 58
31 67
31 76
32 33
32 34
32 35
32 39
32 40
32 41
32 48
32 49
32 50
32 59
32 68
32 77
33 34
33 35
33 42
33 43
33 44
33 51
33 52
33 53
33 60
33 69
33 78
34 35
34 42
34 43
34 44
34 51
34 52
34 53
34 61
34 70
34 79
35 42
35 43
35 44
35 51
35 52
35 53
35 62
35 71
35 80
36 37
36 38
36 39
36 40
36 41
36 42
36 43
36 44
36 45
36 46
36 47
36 54
36 63
36 72
37 38
37 39
37 40
37 41
37 42
37 43
37 44
37 45
37 46
37 47
37 55
37 64
37 73
38 39
38 40
38 41
38 42
38 43
38 44
38 45
38 46
38 47
38 56
38 65
38 74
39 40
39 41
39 42
39 43
39 44
39 48
39 49
39 50
39 57
39 66
39 75
40 41
40 42
40 43
40 44
40 48
40 49
40 50
40 58
40 67
40 76
41 42
41 43
41 44
41 48
41 49
41 50
41 59
41 68
41 77
42 43
42 44
42 51
42 52
42 53
42 60
42 69
42 78
43 44
43 51
43 52
43 53
43 61
43 70
43 79
44 51
44 52
44 53
44 62
44 71
44 80
45 46
45 47
45 48
45 49
45 50
45 51
45 52
45 53
45 54
45 63
45 72
46 47
46 48
46 49
46 50
46 51
46 52
46 53
46 55
46 64
46 73
47 48
47 49
47 50
47 51
47 52
47 53
47 56
47 65
47 74
48 49
48 50
48 51
48 52
48 53
48 57
48 66
48 75
49 50
49 51
49 52
49 53
49 58
49 67
49 76
50 51
50 52
50 53
50 59
50 68
50 77
51 52
51 53
51 60
51 69
51 78
52 53
52 61
52 70
52 79
53 62
53 71
53 80
54 55
54 56
54 57
54 58
54 59
54 60
54 61
54 62
54 63
54 64
54 65
54 72
54 73
54 74
55 56
55 57
55 58
55 59
55 60
55 61
55 62
55 63
55 64
55 65
55 72
55 73
55 74
56 57
56 58
56 59
56 60
56 61
56 62
56 63
56 64
56 65
56 72
56 73
56 74
57 58
57 59
57 60
57 61
57 62
57 66
57 67
57 68
57 75
57 76
57 77
58 59
58 60
58 61
58 62
58 66
58 67
58 68
58 75
58 76
58 77
59 60
59 61
59 62
59 66
59 67
59 68
59 75
59 76
59 77
60 61
60 62
60 69
60 70
60 71
60 78
60 79
60 80
61 62
61 69
61 70
61 71
61 78
61 79
61 80
62 69
62 70
62 71
62 78
62 79
62 80
63 64
63 65
63 66
63 67
63 68
63 69
63 70
63 71
63 72
63 73
63 74
64 65
64 66
64 67
64 68
64 69
64 70
64 71
64 72
64 73
64 74
65 66
65 67
65 68
65 69
65 70
65 71
65 72
65 73
65 74
66 67
66 68
66 69
66 70
66 71
66 75
66 76
66 77
67 68
67 69
67 70
67 71
67 75
67 76
67 77
68 69
68 70
68 71
68 75
68 76
68 77
69 70
69 71
69 78
69 79
69 80
70 71
70 78
70 79
70 80
71 78
71 79
71 80
72 73
72 74
72 75
72 76
72 77
72 78
72 79
72 80
73 74
73 75
73 76
73 77
73 78
73 79
73 80
74 75
74 76
74 77
74 78
74 79
74 80
75 76
75 77
75 78
75 79
75 80
76 77
76 78
76 79
76 80
77 78
77 79
77 80
78 79
78 80
79 80
